log         				log.txt
units				metal
dimension			3
boundary        			p p p
atom_style			charge

read_data				1.data

# atom charges
set type 1 charge 1.89 # Si
set type 2 charge 1.4175  # B
set type 3 charge 0.945 # Ca
set type 4 charge -0.945 # O

group Si type 1
group B type 2
group Ca type 3
group O type 4
          
##################################################################
pair_style          buck/coul/long 10.0 10.0          
kspace_style		ewald 1.0e-5

pair_coeff      * * 0.00000000 1.000 0.00000000 # others
pair_coeff      1 2  337.70     0.29     0.0
pair_coeff      1 4  50306.10   0.161    46.2978
pair_coeff      2 2  484.40     0.35     0.0
pair_coeff      2 4  206941.81  0.124    35.0018
pair_coeff      3 4  155667.70  0.178    42.2597
pair_coeff      4 4  9022.79    0.265    85.0921

neighbor		               2.0 bin
neigh_modify 		every 1 delay 0 check yes
timestep			0.001       ## 1.0 fs, metal time unit is ps
##################################################################
# outputs
thermo 100
thermo_style custom step temp pe press lx density

# mixing2
minimize 1.0e-8 1.0e-8 10000 10000
reset_timestep	0
velocity all create 5000.0 5812775 dist gaussian

###########################################################################
fix 1 all nvt temp 5000 5000 0.1
run 400000
                                                               #400ps
unfix 1

write_restart NVT5000K.rest
write_data NVT5000K.dat


# cooling   5k/ps
fix 1 all nvt temp 5000 1823 0.1 
run 635400                                                             #635.4ps
unfix 1
write_restart cooling.rest
write_data cooling.dat

# final relaxation
thermo_style 		custom step temp vol pe press lx density
thermo				100
fix 1 all npt temp 1823 1823 0.1 iso 0.0 0.0 1
run 200000                                                              #200ps
unfix 1
write_restart BeforeStatistical.rest
write_data  BeforeStatistical.dat

thermo_style 		custom step temp vol pe press lx density
thermo				100
fix 1 all nve 
run 100000                                                             #100ps
unfix 1


# statistical average
thermo_style 		custom step temp vol pe press lx xlo xhi density
thermo				1000

compute msdSi Si msd com yes
compute msdB B msd com yes
compute msdCa Ca msd com yes
compute msdO O msd com yes

compute 			RDF all rdf 1000 1 4 2 4 3 4 4 4 1 1 2 2 3 3 1 2 1 3 1 4 2 3 2 4 3 4  #计算1-4号原子对4号原子的径向分布函数
fix 			2 all ave/time 1 1 1000 c_RDF[*] file RDF.profile mode vector 
fix outMSD all ave/time 1 1 1000 c_msdSi[4] c_msdB[4] c_msdCa[4] c_msdO[4] start 0 file MSD.average      #output msd with timestep
dump  1  all custom 1000 md.lammpstrj id type  x y z vx vy vz 
dump  2  all atom 1000 VMDdata.NPT.lammpstrj
dump 3 all xyz 1000 final.xyz
dump_modify 3 element Si B Ca O 
dump 4 all custom 20000 elastic.txt.* id type x y z   


fix 1 all nve
run 100000                                                 #100ps
unfix 1
unfix 2
unfix outMSD
undump 1
undump 2
undump 3
undump 4

write_restart end1823K.rest
write_data end1823K.dat
